7 0
0.0 10.0 20.0 25.0 12.0 20.0 2.0
10.0 0.0 25.0 20.0 20.0 10.0 11.0
20.0 25.0 0.0 10.0 25.0 11.0 25.0
25.0 20.0 10.0 0.0 30.0 22.0 10.0
12.0 20.0 25.0 30.0 0.0 30.0 20.0
20.0 10.0 11.0 22.0 30.0 0.0 12.0
2.0 11.0 25.0 10.0 20.0 12.0 0.0
0.0 1.0 1.0 1.0 1.0 1.0 1.0
